proyfinal/src/viki/013/andrea/andrea-localstore/experimentInOfficeAgust.take6/worker_10/9db76025-f5c3-4f0f-9482-e655abc289e9.als.cnf.out
Reading from standard input... Use '--help' for help.
============================[ Problem Statistics ]=============================
|                                                                             |
|  Number of variables:         87638                                         |
|  Number of clauses:          161767                                         |
|  Parse time:                   0.03 s                                       |
|                                                                             |
============================[ Search Statistics ]==============================
| Conflicts |          ORIGINAL         |          LEARNT          | Progress |
|           |    Vars  Clauses Literals |    Limit  Clauses Lit/Cl |          |
===============================================================================
|       100 |   63745   110135   275274 |    40382      100     24 | 27.263 % |
|       250 |   63745   110135   275274 |    44421      250     17 | 27.263 % |
|       475 |   63737   110103   275186 |    48863      465     27 | 27.272 % |
|       812 |   63737   110103   275186 |    53749      802     38 | 27.272 % |
|      1318 |   63737   110103   275186 |    59124     1308     45 | 27.273 % |
|      2077 |   63737   110103   275186 |    65036     2067     57 | 27.272 % |
|      3216 |   63737   110103   275186 |    71540     3206     70 | 27.272 % |
|      4924 |   51515    74486   187720 |    78694     4855     66 | 41.218 % |
|      7486 |   51401    73635   185593 |    86564     7404     71 | 41.349 % |
|     11330 |   51177    72625   183208 |    95220    10881     71 | 41.604 % |
|     17096 |   50669    70982   179377 |   104742    15454     66 | 42.184 % |
===============================================================================
restarts              : 74
conflicts             : 20902          (6304 /sec)
decisions             : 65458          (0.00 % random) (19742 /sec)
propagations          : 33829492       (10202857 /sec)
conflict literals     : 1334162        (47.40 % deleted)
Memory used           : 29.25 MB
CPU time              : 3.31569 s

INDETERMINATE
